/* Objective function */
max: +1.56080909821 guilty_28 +0.409282001136 his_46 +2.12042488614 Brian_10 -0.549927055977 was_25 +6.52714413341 off._5
 +1.10882397447 committee_37 +1.56080909821 Medical_41 -0.672042279066 by_33 -1.05757768692 of_29 +2.0245605362 found_27
 +1.20413415427 name_47 +1.89728133483 ordered_45 +2.97311478942 yesterday_26 +0.409282001136 his_21
 +2.8135720667 Richards_11 +1.89728133483 conduct_36 -1.05757768692 of_38 +1.71495977804 partner_22 +5.71621391719 struck_4
 -1.05757768692 the_34 +6.52714413341 off._49 +2.8135720667 therapist_8 -1.05757768692 the_15 -1.02121360532 to_2
 +3.2135720667 Doctor_1 +4.69456266966 professional_31 -0.741775994785 have_20 -1.05757768692 the_39
 +2.12042488614 sex_7 +4.69456266966 professional_35 -0.554774514666 be_3 +1.56080909821 trying_18 -1.05757768692 of_17
 -0.972728163194 in_14 +5.71621391719 struck_48 +3.75455541117 Dr_9 +1.56080909821 serious_30 -1.02121360532 to_19
 +2.12042488614 convicted_13 +1.10882397447 Us_16 -0.604154616909 who_44 +1.30949466993 killed_23 +2.4081069586 misconduct_32
 +0.941769889803 General_40 +2.6353238353 London_6 +3.11764794893 Council_42;

/* Constraints */
+his_46 +Brian_10 +was_25 +off._5 +committee_37 +Medical_41 +by_33 +of_29 +found_27 +name_47 +ordered_45
 +yesterday_26 +his_21 +Richards_11 +conduct_36 +of_38 +partner_22 +struck_4 +the_34 +off._49 +therapist_8
 +the_15 +to_2 +Doctor_1 +professional_31 +have_20 +the_39 +sex_7 +professional_35 +be_3 +trying_18 +of_17
 +in_14 +struck_48 +Dr_9 +serious_30 +to_19 +convicted_13 +Us_16 +who_44 +killed_23 +misconduct_32 +General_40
 +London_6 +Council_42 +Council_42 >= 1;
+found_27 +guilty_28 >= 0;
-his_46 +his_21 >= 0;
-Brian_10 +of_29 >= 0;
-was_25 +his_21 >= 0;
-off._5 +to_2 >= 0;
-committee_37 +London_6 >= 0;
-Medical_41 +of_29 >= 0;
-by_33 +Council_42 >= 0;
-of_29 +partner_22 >= 0;
-found_27 +in_14 >= 0;
+off._5 -name_47 >= 0;
+of_29 -ordered_45 >= 0;
-yesterday_26 +of_38 >= 0;
+of_29 -his_21 >= 0;
+Medical_41 -Richards_11 >= 0;
+off._5 -conduct_36 >= 0;
-of_38 +professional_31 >= 0;
-partner_22 +to_2 >= 0;
+Richards_11 -struck_4 >= 0;
-the_34 +in_14 >= 0;
+his_21 -off._49 >= 0;
-therapist_8 +convicted_13 >= 0;
+partner_22 -the_15 >= 0;
-to_2 +Council_42 >= 0;
-Doctor_1 +killed_23 >= 0;
-professional_31 +be_3 >= 0;
-have_20 +London_6 >= 0;
+his_21 -the_39 >= 0;
+Richards_11 -sex_7 >= 0;
+partner_22 -professional_35 >= 0;
-be_3 +trying_18 >= 0;
-trying_18 +convicted_13 >= 0;
-of_17 +to_19 >= 0;
+name_47 -in_14 >= 0;
+his_21 -struck_48 >= 0;
-Dr_9 +killed_23 >= 0;
+professional_31 -serious_30 >= 0;
+his_21 -to_19 >= 0;
+of_17 -convicted_13 >= 0;
+name_47 -Us_16 >= 0;
+of_38 -who_44 >= 0;
+by_33 -killed_23 >= 0;
-misconduct_32 +London_6 >= 0;
+his_21 -General_40 >= 0;
+conduct_36 -London_6 >= 0;
R47: +Council_42 >= 1;
R48: +Council_42 >= 1;
R49: +Council_42 >= 1;
R50: +Council_42 >= 1;
R51: +Council_42 >= 1;
R52: +Council_42 >= 1;
R53: +Council_42 >= 1;
R54: +Council_42 >= 1;
R55: +Council_42 >= 1;
R56: +Council_42 >= 1;
R57: +Council_42 >= 1;
R58: +Council_42 >= 1;
R59: +Council_42 >= 1;
R60: +Council_42 >= 1;
R61: +Council_42 >= 1;
R62: +Council_42 >= 1;
R63: +Council_42 >= 1;
R64: +Council_42 >= 1;
R65: +Council_42 >= 1;
R66: +Council_42 >= 1;
R67: +Council_42 >= 1;
R68: +Council_42 >= 1;
R69: +Council_42 >= 1;
R70: +Council_42 >= 1;
R71: +Council_42 >= 1;
R72: +Council_42 >= 1;
R73: +Council_42 >= 1;
R74: +Council_42 >= 1;
R75: +Council_42 >= 1;
R76: +Council_42 >= 1;
R77: +Council_42 >= 1;
R78: +Council_42 >= 1;
R79: +Council_42 >= 1;
R80: +Council_42 >= 1;
R81: +Council_42 >= 1;
R82: +Council_42 >= 1;
R83: +Council_42 >= 1;
R84: +Council_42 >= 1;
R85: +Council_42 >= 1;
R86: +Council_42 >= 1;
R87: +Council_42 >= 1;
R88: +Council_42 >= 1;
R89: +Council_42 >= 1;
R90: +Council_42 >= 1;
R91: +Council_42 >= 1;

/* Variable bounds */
guilty_28 <= 1;
his_46 <= 1;
Brian_10 <= 1;
was_25 <= 1;
off._5 <= 1;
committee_37 <= 1;
Medical_41 <= 1;
by_33 <= 1;
of_29 <= 1;
found_27 <= 1;
name_47 <= 1;
ordered_45 <= 1;
yesterday_26 <= 1;
his_21 <= 1;
Richards_11 <= 1;
conduct_36 <= 1;
of_38 <= 1;
partner_22 <= 1;
struck_4 <= 1;
the_34 <= 1;
off._49 <= 1;
therapist_8 <= 1;
the_15 <= 1;
to_2 <= 1;
Doctor_1 <= 1;
professional_31 <= 1;
have_20 <= 1;
the_39 <= 1;
sex_7 <= 1;
professional_35 <= 1;
be_3 <= 1;
trying_18 <= 1;
of_17 <= 1;
in_14 <= 1;
struck_48 <= 1;
Dr_9 <= 1;
serious_30 <= 1;
to_19 <= 1;
convicted_13 <= 1;
Us_16 <= 1;
who_44 <= 1;
killed_23 <= 1;
misconduct_32 <= 1;
General_40 <= 1;
London_6 <= 1;
Council_42 <= 1;

/* Integer definitions */
int guilty_28,his_46,Brian_10,was_25,off._5,committee_37,Medical_41,by_33,of_29,found_27,name_47,ordered_45,yesterday_26,his_21,Richards_11,conduct_36,of_38,partner_22,struck_4,the_34,off._49,therapist_8,the_15,to_2,Doctor_1,professional_31,have_20,the_39,sex_7,professional_35,be_3,trying_18,of_17,in_14,struck_48,Dr_9,serious_30,to_19,convicted_13,Us_16,who_44,killed_23,misconduct_32,General_40,London_6,Council_42;
